c colouring generated by benchmark framework
p edge 363 6534
v 1 9
v 2 1
v 3 1
v 4 0
v 5 9
v 6 3
v 7 15
v 8 15
v 9 0
v 10 11
v 11 11
v 12 12
v 13 13
v 14 10
v 15 8
v 16 12
v 17 3
v 18 5
v 19 5
v 20 4
v 21 2
v 22 14
v 23 4
v 24 6
v 25 2
v 26 9
v 27 10
v 28 7
v 29 4
v 30 0
v 31 12
v 32 1
v 33 15
v 34 6
v 35 13
v 36 0
v 37 7
v 38 1
v 39 7
v 40 3
v 41 9
v 42 8
v 43 16
v 44 8
v 45 2
v 46 11
v 47 2
v 48 3
v 49 5
v 50 4
v 51 14
v 52 12
v 53 14
v 54 6
v 55 1
v 56 6
v 57 12
v 58 7
v 59 3
v 60 9
v 61 0
v 62 10
v 63 16
v 64 3
v 65 0
v 66 9
v 67 13
v 68 2
v 69 5
v 70 10
v 71 15
v 72 1
v 73 4
v 74 8
v 75 5
v 76 0
v 77 4
v 78 14
v 79 7
v 80 11
v 81 12
v 82 7
v 83 2
v 84 11
v 85 1
v 86 8
v 87 2
v 88 1
v 89 13
v 90 9
v 91 6
v 92 10
v 93 6
v 94 3
v 95 0
v 96 5
v 97 5
v 98 11
v 99 4
v 100 4
v 101 3
v 102 7
v 103 9
v 104 7
v 105 5
v 106 2
v 107 8
v 108 2
v 109 8
v 110 1
v 111 1
v 112 14
v 113 10
v 114 10
v 115 14
v 116 6
v 117 0
v 118 13
v 119 4
v 120 9
v 121 6
v 122 8
v 123 3
v 124 5
v 125 7
v 126 12
v 127 5
v 128 7
v 129 8
v 130 3
v 131 0
v 132 11
v 133 9
v 134 1
v 135 1
v 136 10
v 137 2
v 138 4
v 139 2
v 140 12
v 141 13
v 142 8
v 143 9
v 144 14
v 145 7
v 146 0
v 147 6
v 148 13
v 149 3
v 150 6
v 151 3
v 152 15
v 153 3
v 154 7
v 155 10
v 156 12
v 157 1
v 158 11
v 159 5
v 160 4
v 161 8
v 162 7
v 163 2
v 164 5
v 165 0
v 166 2
v 167 6
v 168 0
v 169 6
v 170 11
v 171 9
v 172 3
v 173 1
v 174 3
v 175 14
v 176 10
v 177 10
v 178 9
v 179 12
v 180 4
v 181 11
v 182 8
v 183 5
v 184 7
v 185 8
v 186 7
v 187 1
v 188 6
v 189 13
v 190 11
v 191 11
v 192 0
v 193 2
v 194 3
v 195 5
v 196 10
v 197 6
v 198 9
v 199 16
v 200 4
v 201 10
v 202 14
v 203 0
v 204 2
v 205 9
v 206 7
v 207 5
v 208 1
v 209 1
v 210 8
v 211 11
v 212 3
v 213 12
v 214 5
v 215 8
v 216 15
v 217 14
v 218 6
v 219 4
v 220 4
v 221 10
v 222 6
v 223 12
v 224 9
v 225 0
v 226 16
v 227 8
v 228 10
v 229 15
v 230 11
v 231 7
v 232 13
v 233 1
v 234 2
v 235 2
v 236 7
v 237 14
v 238 0
v 239 6
v 240 14
v 241 5
v 242 4
v 243 9
v 244 5
v 245 4
v 246 3
v 247 11
v 248 3
v 249 12
v 250 1
v 251 3
v 252 10
v 253 13
v 254 6
v 255 7
v 256 7
v 257 0
v 258 11
v 259 2
v 260 6
v 261 1
v 262 2
v 263 4
v 264 8
v 265 9
v 266 1
v 267 3
v 268 11
v 269 1
v 270 9
v 271 8
v 272 10
v 273 14
v 274 6
v 275 4
v 276 5
v 277 12
v 278 10
v 279 3
v 280 13
v 281 0
v 282 2
v 283 13
v 284 0
v 285 5
v 286 2
v 287 3
v 288 7
v 289 6
v 290 11
v 291 8
v 292 9
v 293 8
v 294 7
v 295 9
v 296 4
v 297 12
v 298 1
v 299 7
v 300 4
v 301 6
v 302 10
v 303 14
v 304 5
v 305 2
v 306 2
v 307 1
v 308 0
v 309 6
v 310 3
v 311 0
v 312 12
v 313 0
v 314 11
v 315 15
v 316 5
v 317 1
v 318 9
v 319 7
v 320 7
v 321 13
v 322 7
v 323 4
v 324 9
v 325 3
v 326 8
v 327 1
v 328 10
v 329 4
v 330 6
v 331 2
v 332 12
v 333 6
v 334 11
v 335 2
v 336 0
v 337 9
v 338 11
v 339 14
v 340 1
v 341 1
v 342 4
v 343 5
v 344 0
v 345 3
v 346 5
v 347 7
v 348 9
v 349 8
v 350 13
v 351 12
v 352 6
v 353 10
v 354 11
v 355 3
v 356 12
v 357 7
v 358 13
v 359 6
v 360 2
v 361 11
v 362 4
v 363 14
